
Gurobi 9.5.2 (mac64[x86], Java) logging started Fri Sep 30 17:24:38 2022

Set parameter Username
Set parameter LogFile to value "mip1 .log"
Academic license - for non-commercial use only - expires 2023-09-24
Warning: Gurobi version mismatch between Java 9.5.1 and C library 9.5.2
Gurobi Optimizer version 9.5.2 build v9.5.2rc0 (mac64[x86])
Thread count: 2 physical cores, 4 logical processors, using up to 4 threads
Optimize a model with 2 rows, 1 columns and 2 nonzeros
Model fingerprint: 0xacda0bec
Variable types: 0 continuous, 1 integer (1 binary)
Coefficient statistics:
  Matrix range     [1e+00, 1e+00]
  Objective range  [1e+02, 1e+02]
  Bounds range     [1e+00, 1e+00]
  RHS range        [1e+00, 1e+00]
Found heuristic solution: objective 100.0000000

Explored 0 nodes (0 simplex iterations) in 0.01 seconds (0.00 work units)
Thread count was 1 (of 4 available processors)

Solution count 1: 100 

Optimal solution found (tolerance 1.00e-04)
Best objective 1.000000000000e+02, best bound 1.000000000000e+02, gap 0.0000%

Gurobi 9.5.2 (mac64[x86], Java) logging started Fri Sep 30 17:24:38 2022

Set parameter Username
Set parameter LogFile to value "mip1 .log"
Academic license - for non-commercial use only - expires 2023-09-24
Warning: Gurobi version mismatch between Java 9.5.1 and C library 9.5.2
Gurobi Optimizer version 9.5.2 build v9.5.2rc0 (mac64[x86])
Thread count: 2 physical cores, 4 logical processors, using up to 4 threads
Optimize a model with 2 rows, 1 columns and 2 nonzeros
Model fingerprint: 0xacda0bec
Variable types: 0 continuous, 1 integer (1 binary)
Coefficient statistics:
  Matrix range     [1e+00, 1e+00]
  Objective range  [1e+02, 1e+02]
  Bounds range     [1e+00, 1e+00]
  RHS range        [1e+00, 1e+00]
Found heuristic solution: objective 100.0000000

Explored 0 nodes (0 simplex iterations) in 0.00 seconds (0.00 work units)
Thread count was 1 (of 4 available processors)

Solution count 1: 100 

Optimal solution found (tolerance 1.00e-04)
Best objective 1.000000000000e+02, best bound 1.000000000000e+02, gap 0.0000%

Gurobi 9.5.2 (mac64[x86], Java) logging started Fri Sep 30 17:24:38 2022

Set parameter Username
Set parameter LogFile to value "mip1 .log"
Academic license - for non-commercial use only - expires 2023-09-24
Warning: Gurobi version mismatch between Java 9.5.1 and C library 9.5.2
Gurobi Optimizer version 9.5.2 build v9.5.2rc0 (mac64[x86])
Thread count: 2 physical cores, 4 logical processors, using up to 4 threads
Optimize a model with 2 rows, 1 columns and 2 nonzeros
Model fingerprint: 0xacda0bec
Variable types: 0 continuous, 1 integer (1 binary)
Coefficient statistics:
  Matrix range     [1e+00, 1e+00]
  Objective range  [1e+02, 1e+02]
  Bounds range     [1e+00, 1e+00]
  RHS range        [1e+00, 1e+00]
Found heuristic solution: objective 100.0000000

Explored 0 nodes (0 simplex iterations) in 0.00 seconds (0.00 work units)
Thread count was 1 (of 4 available processors)

Solution count 1: 100 

Optimal solution found (tolerance 1.00e-04)
Best objective 1.000000000000e+02, best bound 1.000000000000e+02, gap 0.0000%

Gurobi 9.5.2 (mac64[x86], Java) logging started Fri Sep 30 17:24:38 2022

Set parameter Username
Set parameter LogFile to value "mip1 .log"
Academic license - for non-commercial use only - expires 2023-09-24
Warning: Gurobi version mismatch between Java 9.5.1 and C library 9.5.2
Gurobi Optimizer version 9.5.2 build v9.5.2rc0 (mac64[x86])
Thread count: 2 physical cores, 4 logical processors, using up to 4 threads
Optimize a model with 2 rows, 1 columns and 2 nonzeros
Model fingerprint: 0xacda0bec
Variable types: 0 continuous, 1 integer (1 binary)
Coefficient statistics:
  Matrix range     [1e+00, 1e+00]
  Objective range  [1e+02, 1e+02]
  Bounds range     [1e+00, 1e+00]
  RHS range        [1e+00, 1e+00]
Found heuristic solution: objective 100.0000000

Explored 0 nodes (0 simplex iterations) in 0.00 seconds (0.00 work units)
Thread count was 1 (of 4 available processors)

Solution count 1: 100 

Optimal solution found (tolerance 1.00e-04)
Best objective 1.000000000000e+02, best bound 1.000000000000e+02, gap 0.0000%

Gurobi 9.5.2 (mac64[x86], Java) logging started Fri Sep 30 17:24:38 2022

Set parameter Username
Set parameter LogFile to value "mip1 .log"
Academic license - for non-commercial use only - expires 2023-09-24
Warning: Gurobi version mismatch between Java 9.5.1 and C library 9.5.2
Gurobi Optimizer version 9.5.2 build v9.5.2rc0 (mac64[x86])
Thread count: 2 physical cores, 4 logical processors, using up to 4 threads
Optimize a model with 2 rows, 1 columns and 2 nonzeros
Model fingerprint: 0xacda0bec
Variable types: 0 continuous, 1 integer (1 binary)
Coefficient statistics:
  Matrix range     [1e+00, 1e+00]
  Objective range  [1e+02, 1e+02]
  Bounds range     [1e+00, 1e+00]
  RHS range        [1e+00, 1e+00]
Found heuristic solution: objective 100.0000000

Explored 0 nodes (0 simplex iterations) in 0.00 seconds (0.00 work units)
Thread count was 1 (of 4 available processors)

Solution count 1: 100 

Optimal solution found (tolerance 1.00e-04)
Best objective 1.000000000000e+02, best bound 1.000000000000e+02, gap 0.0000%

Gurobi 9.5.2 (mac64[x86], Java) logging started Fri Sep 30 17:24:38 2022

Set parameter Username
Set parameter LogFile to value "mip1 .log"
Academic license - for non-commercial use only - expires 2023-09-24
Warning: Gurobi version mismatch between Java 9.5.1 and C library 9.5.2
Gurobi Optimizer version 9.5.2 build v9.5.2rc0 (mac64[x86])
Thread count: 2 physical cores, 4 logical processors, using up to 4 threads
Optimize a model with 2 rows, 1 columns and 2 nonzeros
Model fingerprint: 0xacda0bec
Variable types: 0 continuous, 1 integer (1 binary)
Coefficient statistics:
  Matrix range     [1e+00, 1e+00]
  Objective range  [1e+02, 1e+02]
  Bounds range     [1e+00, 1e+00]
  RHS range        [1e+00, 1e+00]
Found heuristic solution: objective 100.0000000

Explored 0 nodes (0 simplex iterations) in 0.00 seconds (0.00 work units)
Thread count was 1 (of 4 available processors)

Solution count 1: 100 

Optimal solution found (tolerance 1.00e-04)
Best objective 1.000000000000e+02, best bound 1.000000000000e+02, gap 0.0000%

Gurobi 9.5.2 (mac64[x86], Java) logging started Fri Sep 30 17:24:38 2022

Set parameter Username
Set parameter LogFile to value "mip1 .log"
Academic license - for non-commercial use only - expires 2023-09-24
Warning: Gurobi version mismatch between Java 9.5.1 and C library 9.5.2
Gurobi Optimizer version 9.5.2 build v9.5.2rc0 (mac64[x86])
Thread count: 2 physical cores, 4 logical processors, using up to 4 threads
Optimize a model with 5 rows, 6 columns and 12 nonzeros
Model fingerprint: 0x7d62afa6
Variable types: 0 continuous, 6 integer (6 binary)
Coefficient statistics:
  Matrix range     [1e+00, 1e+00]
  Objective range  [1e+02, 1e+02]
  Bounds range     [1e+00, 1e+00]
  RHS range        [1e-01, 9e-01]
Presolve time: 0.01s

Explored 0 nodes (0 simplex iterations) in 0.01 seconds (0.00 work units)
Thread count was 1 (of 4 available processors)

Solution count 0
No other solutions better than -1e+100

Model is infeasible
Best objective -, best bound -, gap -
